language Essence 1.3

letting network be mset({}, {1, 6, 7, 9, 10}, {1, 8, 10, 11, 12}, {2, 4, 5, 6, 7}, {3, 4, 6, 8, 13}, {4, 13}, {4, 13})
$ Here is a simple "visualisation" for the value above.
$ 
$  1  6  7  9 10
$  1  8 10 11 12
$  2  4  5  6  7
$  3  4  6  8 13
$  4 13
$  4 13

